# Objective value = 17
cmax 17
x_1_1 0
x_1_2 1
x_2_1 1
t_1_1_1 0
t_1_1_2 0
t_1_1_3 0
t_1_2_1 0
t_1_2_2 10
t_2_1_1 0
t_2_1_2 6
t_2_1_3 11
a_1_1_1_0 0
a_1_1_2_1 0
a_1_1_3_2 0
a_1_2_1_3 1
a_1_2_2_4 1
a_2_1_1_0 1
a_2_1_2_1 1
a_2_1_3_2 1
B_1_1_1_1_1_1 0
B_1_1_1_1_1_2 0
B_1_1_1_1_1_3 0
B_1_1_1_1_2_1 0
B_1_1_1_1_2_2 0
B_1_1_1_2_1_1 0
B_1_1_1_2_1_2 0
B_1_1_1_2_1_3 0
B_1_1_2_1_1_1 0
B_1_1_2_1_1_2 0
B_1_1_2_1_1_3 0
B_1_1_2_1_2_1 0
B_1_1_2_1_2_2 0
B_1_1_2_2_1_1 0
B_1_1_2_2_1_2 0
B_1_1_2_2_1_3 0
B_1_1_3_1_1_1 0
B_1_1_3_1_1_2 0
B_1_1_3_1_1_3 0
B_1_1_3_1_2_1 0
B_1_1_3_1_2_2 0
B_1_1_3_2_1_1 0
B_1_1_3_2_1_2 0
B_1_1_3_2_1_3 1
B_1_2_1_1_1_1 0
B_1_2_1_1_1_2 0
B_1_2_1_1_1_3 0
B_1_2_1_1_2_1 0
B_1_2_1_1_2_2 0
B_1_2_1_2_1_1 0
B_1_2_1_2_1_2 0
B_1_2_1_2_1_3 0
B_1_2_2_1_1_1 0
B_1_2_2_1_1_2 0
B_1_2_2_1_1_3 0
B_1_2_2_1_2_1 0
B_1_2_2_1_2_2 0
B_1_2_2_2_1_1 0
B_1_2_2_2_1_2 0
B_1_2_2_2_1_3 0
B_2_1_1_1_1_1 0
B_2_1_1_1_1_2 0
B_2_1_1_1_1_3 0
B_2_1_1_1_2_1 0
B_2_1_1_1_2_2 0
B_2_1_1_2_1_1 0
B_2_1_1_2_1_2 0
B_2_1_1_2_1_3 0
B_2_1_2_1_1_1 0
B_2_1_2_1_1_2 0
B_2_1_2_1_1_3 0
B_2_1_2_1_2_1 0
B_2_1_2_1_2_2 0
B_2_1_2_2_1_1 0
B_2_1_2_2_1_2 0
B_2_1_2_2_1_3 0
B_2_1_3_1_1_1 0
B_2_1_3_1_1_2 0
B_2_1_3_1_1_3 0
B_2_1_3_1_2_1 0
B_2_1_3_1_2_2 0
B_2_1_3_2_1_1 0
B_2_1_3_2_1_2 0
B_2_1_3_2_1_3 0
